c " random instance " 
p edges 200 2193
e 1 28
e 1 42
e 1 43
e 1 52
e 1 60
e 1 61
e 1 66
e 1 80
e 1 94
e 1 98
e 1 105
e 1 125
e 1 177
e 1 200
e 2 25
e 2 27
e 2 31
e 2 42
e 2 54
e 2 60
e 2 78
e 2 79
e 2 86
e 2 121
e 2 132
e 2 133
e 2 135
e 2 144
e 2 155
e 2 165
e 2 182
e 2 185
e 3 12
e 3 21
e 3 22
e 3 27
e 3 46
e 3 50
e 3 52
e 3 62
e 3 63
e 3 72
e 3 80
e 3 86
e 3 87
e 3 93
e 3 98
e 3 102
e 3 109
e 3 114
e 3 128
e 3 135
e 3 139
e 3 143
e 3 161
e 3 169
e 3 170
e 3 176
e 3 199
e 3 200
e 4 12
e 4 15
e 4 25
e 4 29
e 4 34
e 4 36
e 4 44
e 4 49
e 4 51
e 4 58
e 4 80
e 4 86
e 4 95
e 4 110
e 4 127
e 4 138
e 4 147
e 4 149
e 4 153
e 4 184
e 5 9
e 5 36
e 5 39
e 5 58
e 5 60
e 5 63
e 5 87
e 5 90
e 5 118
e 5 152
e 5 153
e 5 161
e 5 165
e 5 166
e 5 167
e 5 169
e 5 174
e 5 194
e 5 197
e 6 32
e 6 38
e 6 55
e 6 133
e 6 145
e 6 149
e 6 171
e 6 175
e 6 183
e 6 185
e 6 191
e 6 198
e 7 31
e 7 35
e 7 38
e 7 39
e 7 41
e 7 58
e 7 59
e 7 62
e 7 63
e 7 66
e 7 73
e 7 86
e 7 97
e 7 112
e 7 118
e 7 132
e 7 134
e 7 136
e 7 138
e 7 165
e 7 169
e 7 192
e 8 11
e 8 13
e 8 22
e 8 33
e 8 40
e 8 44
e 8 59
e 8 68
e 8 73
e 8 78
e 8 91
e 8 95
e 8 101
e 8 104
e 8 107
e 8 120
e 8 138
e 8 139
e 8 148
e 8 161
e 8 163
e 8 197
e 9 38
e 9 54
e 9 56
e 9 72
e 9 75
e 9 85
e 9 86
e 9 95
e 9 96
e 9 99
e 9 111
e 9 117
e 9 122
e 9 157
e 9 161
e 9 171
e 9 174
e 9 186
e 9 192
e 9 193
e 10 27
e 10 33
e 10 62
e 10 70
e 10 73
e 10 105
e 10 119
e 10 128
e 10 135
e 10 137
e 10 139
e 10 148
e 10 149
e 10 151
e 10 159
e 10 160
e 10 168
e 10 173
e 10 174
e 10 178
e 10 189
e 10 190
e 10 195
e 10 197
e 10 200
e 11 34
e 11 46
e 11 47
e 11 52
e 11 56
e 11 66
e 11 72
e 11 73
e 11 82
e 11 84
e 11 96
e 11 100
e 11 102
e 11 110
e 11 112
e 11 119
e 11 124
e 11 132
e 11 149
e 11 175
e 11 178
e 11 182
e 11 183
e 11 188
e 12 30
e 12 53
e 12 58
e 12 60
e 12 69
e 12 79
e 12 85
e 12 86
e 12 97
e 12 98
e 12 127
e 12 134
e 12 160
e 12 163
e 12 170
e 12 197
e 13 15
e 13 21
e 13 27
e 13 40
e 13 44
e 13 77
e 13 81
e 13 82
e 13 91
e 13 96
e 13 99
e 13 100
e 13 103
e 13 119
e 13 120
e 13 122
e 13 127
e 13 135
e 13 140
e 13 160
e 13 166
e 13 175
e 13 187
e 13 192
e 13 194
e 14 15
e 14 20
e 14 30
e 14 37
e 14 38
e 14 39
e 14 48
e 14 49
e 14 51
e 14 58
e 14 60
e 14 68
e 14 72
e 14 90
e 14 91
e 14 97
e 14 98
e 14 115
e 14 127
e 14 129
e 14 138
e 14 152
e 14 181
e 14 189
e 14 190
e 15 19
e 15 20
e 15 24
e 15 32
e 15 61
e 15 72
e 15 74
e 15 81
e 15 83
e 15 88
e 15 96
e 15 106
e 15 108
e 15 114
e 15 124
e 15 128
e 15 129
e 15 131
e 15 153
e 15 156
e 15 175
e 15 180
e 15 187
e 15 192
e 16 26
e 16 54
e 16 59
e 16 79
e 16 89
e 16 107
e 16 114
e 16 126
e 16 136
e 16 137
e 16 141
e 16 142
e 16 159
e 16 166
e 16 167
e 16 185
e 16 189
e 16 192
e 16 195
e 17 33
e 17 39
e 17 56
e 17 70
e 17 79
e 17 80
e 17 84
e 17 98
e 17 107
e 17 108
e 17 115
e 17 118
e 17 130
e 17 135
e 17 136
e 17 138
e 17 140
e 17 142
e 17 161
e 17 162
e 17 174
e 17 179
e 17 191
e 17 200
e 18 39
e 18 44
e 18 49
e 18 59
e 18 79
e 18 81
e 18 94
e 18 100
e 18 128
e 18 163
e 18 198
e 19 20
e 19 23
e 19 35
e 19 40
e 19 50
e 19 59
e 19 64
e 19 66
e 19 67
e 19 75
e 19 80
e 19 99
e 19 113
e 19 114
e 19 120
e 19 125
e 19 136
e 19 170
e 19 172
e 19 187
e 19 189
e 19 191
e 19 193
e 20 23
e 20 49
e 20 56
e 20 59
e 20 62
e 20 67
e 20 71
e 20 80
e 20 81
e 20 89
e 20 90
e 20 115
e 20 131
e 20 138
e 20 142
e 20 152
e 20 158
e 20 159
e 20 182
e 20 189
e 20 191
e 20 193
e 20 199
e 21 27
e 21 30
e 21 36
e 21 40
e 21 74
e 21 83
e 21 94
e 21 99
e 21 117
e 21 119
e 21 131
e 21 134
e 21 142
e 21 149
e 21 156
e 21 158
e 21 175
e 21 180
e 21 191
e 21 192
e 22 26
e 22 30
e 22 41
e 22 46
e 22 51
e 22 53
e 22 66
e 22 67
e 22 81
e 22 88
e 22 108
e 22 116
e 22 125
e 22 127
e 22 136
e 22 166
e 22 172
e 22 177
e 22 189
e 22 192
e 22 193
e 23 24
e 23 25
e 23 26
e 23 29
e 23 38
e 23 48
e 23 50
e 23 57
e 23 63
e 23 66
e 23 68
e 23 69
e 23 70
e 23 72
e 23 74
e 23 76
e 23 91
e 23 102
e 23 104
e 23 108
e 23 109
e 23 118
e 23 121
e 23 152
e 23 159
e 23 180
e 23 181
e 24 31
e 24 41
e 24 61
e 24 62
e 24 82
e 24 90
e 24 96
e 24 106
e 24 112
e 24 113
e 24 117
e 24 120
e 24 121
e 24 122
e 24 123
e 24 132
e 24 136
e 24 150
e 24 166
e 24 172
e 25 28
e 25 38
e 25 43
e 25 46
e 25 50
e 25 59
e 25 65
e 25 68
e 25 69
e 25 83
e 25 87
e 25 128
e 25 150
e 25 159
e 25 168
e 25 179
e 25 182
e 26 31
e 26 32
e 26 41
e 26 53
e 26 58
e 26 68
e 26 69
e 26 77
e 26 82
e 26 85
e 26 126
e 26 131
e 26 132
e 26 137
e 26 145
e 26 155
e 26 184
e 26 197
e 27 34
e 27 97
e 27 100
e 27 103
e 27 107
e 27 130
e 27 133
e 27 135
e 27 136
e 27 140
e 27 160
e 27 168
e 27 178
e 27 180
e 27 200
e 28 37
e 28 48
e 28 50
e 28 57
e 28 80
e 28 88
e 28 92
e 28 108
e 28 109
e 28 118
e 28 143
e 28 154
e 28 162
e 28 175
e 28 176
e 28 181
e 28 184
e 28 190
e 28 195
e 28 200
e 29 33
e 29 36
e 29 39
e 29 48
e 29 64
e 29 105
e 29 110
e 29 122
e 29 138
e 29 139
e 29 141
e 29 143
e 29 146
e 29 149
e 29 160
e 29 185
e 30 34
e 30 45
e 30 57
e 30 59
e 30 69
e 30 82
e 30 86
e 30 93
e 30 98
e 30 131
e 30 136
e 30 175
e 30 187
e 31 52
e 31 59
e 31 78
e 31 104
e 31 110
e 31 116
e 31 117
e 31 118
e 31 127
e 31 128
e 31 130
e 31 132
e 31 136
e 31 162
e 31 164
e 31 183
e 31 187
e 32 39
e 32 69
e 32 71
e 32 73
e 32 118
e 32 123
e 32 124
e 32 152
e 32 156
e 32 185
e 32 186
e 32 189
e 32 190
e 32 199
e 33 42
e 33 50
e 33 54
e 33 62
e 33 76
e 33 79
e 33 90
e 33 91
e 33 92
e 33 98
e 33 108
e 33 152
e 33 153
e 33 159
e 33 174
e 33 188
e 34 41
e 34 46
e 34 48
e 34 57
e 34 70
e 34 74
e 34 90
e 34 101
e 34 106
e 34 124
e 34 126
e 34 136
e 34 159
e 34 175
e 34 181
e 34 199
e 35 44
e 35 60
e 35 63
e 35 72
e 35 78
e 35 81
e 35 84
e 35 113
e 35 132
e 35 136
e 35 140
e 35 147
e 35 165
e 36 39
e 36 47
e 36 48
e 36 53
e 36 57
e 36 64
e 36 77
e 36 112
e 36 117
e 36 123
e 36 129
e 36 149
e 36 160
e 36 172
e 36 185
e 36 192
e 37 38
e 37 72
e 37 75
e 37 82
e 37 86
e 37 109
e 37 115
e 37 117
e 37 134
e 37 147
e 37 156
e 37 167
e 37 173
e 37 174
e 37 175
e 37 182
e 37 184
e 37 185
e 38 50
e 38 61
e 38 67
e 38 77
e 38 79
e 38 107
e 38 108
e 38 109
e 38 114
e 38 116
e 38 118
e 38 119
e 38 135
e 38 147
e 38 150
e 38 152
e 38 158
e 38 174
e 38 175
e 38 192
e 38 194
e 39 56
e 39 58
e 39 61
e 39 66
e 39 81
e 39 88
e 39 94
e 39 101
e 39 110
e 39 111
e 39 120
e 39 132
e 39 134
e 39 136
e 39 152
e 39 153
e 39 157
e 39 158
e 39 171
e 39 185
e 39 187
e 39 189
e 39 200
e 40 47
e 40 64
e 40 76
e 40 86
e 40 87
e 40 94
e 40 99
e 40 103
e 40 116
e 40 118
e 40 126
e 40 136
e 40 154
e 40 162
e 40 165
e 40 168
e 40 188
e 40 193
e 40 197
e 41 44
e 41 45
e 41 46
e 41 49
e 41 52
e 41 61
e 41 64
e 41 66
e 41 70
e 41 78
e 41 85
e 41 100
e 41 111
e 41 113
e 41 121
e 41 123
e 41 130
e 41 136
e 41 140
e 41 150
e 41 158
e 41 166
e 41 189
e 41 194
e 41 195
e 42 48
e 42 52
e 42 62
e 42 68
e 42 78
e 42 80
e 42 87
e 42 92
e 42 100
e 42 101
e 42 117
e 42 118
e 42 136
e 42 141
e 42 148
e 42 165
e 42 174
e 42 186
e 42 190
e 43 66
e 43 67
e 43 74
e 43 91
e 43 109
e 43 111
e 43 118
e 43 119
e 43 143
e 43 145
e 43 161
e 43 177
e 43 193
e 44 47
e 44 63
e 44 66
e 44 71
e 44 80
e 44 87
e 44 89
e 44 100
e 44 111
e 44 162
e 44 170
e 44 175
e 44 177
e 44 192
e 45 49
e 45 50
e 45 64
e 45 65
e 45 73
e 45 77
e 45 78
e 45 83
e 45 102
e 45 103
e 45 106
e 45 114
e 45 123
e 45 128
e 45 140
e 45 144
e 45 163
e 45 170
e 45 174
e 45 179
e 45 180
e 45 181
e 45 195
e 45 197
e 46 55
e 46 86
e 46 93
e 46 108
e 46 113
e 46 114
e 46 115
e 46 127
e 46 129
e 46 134
e 46 150
e 46 170
e 46 173
e 46 185
e 46 188
e 47 64
e 47 67
e 47 74
e 47 75
e 47 84
e 47 87
e 47 88
e 47 91
e 47 102
e 47 105
e 47 108
e 47 118
e 47 125
e 47 161
e 47 183
e 47 192
e 47 200
e 48 74
e 48 82
e 48 83
e 48 95
e 48 96
e 48 107
e 48 112
e 48 123
e 48 132
e 48 134
e 48 141
e 48 144
e 48 150
e 48 157
e 48 165
e 48 169
e 48 174
e 48 180
e 48 181
e 48 190
e 49 68
e 49 70
e 49 76
e 49 79
e 49 86
e 49 108
e 49 126
e 49 127
e 49 135
e 49 158
e 49 166
e 49 174
e 49 182
e 49 187
e 49 198
e 50 55
e 50 59
e 50 66
e 50 75
e 50 78
e 50 85
e 50 96
e 50 100
e 50 113
e 50 114
e 50 130
e 50 143
e 50 152
e 50 154
e 50 198
e 51 52
e 51 54
e 51 63
e 51 66
e 51 90
e 51 113
e 51 117
e 51 130
e 51 132
e 51 133
e 51 149
e 51 157
e 51 170
e 51 176
e 51 181
e 51 186
e 51 194
e 52 63
e 52 80
e 52 86
e 52 118
e 52 121
e 52 126
e 52 131
e 52 134
e 52 139
e 52 145
e 52 151
e 52 166
e 52 170
e 52 173
e 52 184
e 52 190
e 52 200
e 53 59
e 53 67
e 53 77
e 53 81
e 53 87
e 53 88
e 53 96
e 53 104
e 53 105
e 53 107
e 53 111
e 53 115
e 53 122
e 53 142
e 53 147
e 53 162
e 53 169
e 53 184
e 53 187
e 53 191
e 53 192
e 54 93
e 54 117
e 54 118
e 54 120
e 54 130
e 54 142
e 54 160
e 54 166
e 54 177
e 54 198
e 55 67
e 55 84
e 55 93
e 55 101
e 55 107
e 55 110
e 55 113
e 55 136
e 55 138
e 55 143
e 55 153
e 55 181
e 56 61
e 56 69
e 56 86
e 56 88
e 56 95
e 56 97
e 56 119
e 56 136
e 56 138
e 56 142
e 56 150
e 56 156
e 56 162
e 56 168
e 56 170
e 56 176
e 56 179
e 56 191
e 56 197
e 56 198
e 57 80
e 57 83
e 57 95
e 57 97
e 57 115
e 57 124
e 57 138
e 57 141
e 57 149
e 57 152
e 57 155
e 57 173
e 57 184
e 57 190
e 57 200
e 58 74
e 58 75
e 58 85
e 58 118
e 58 124
e 58 132
e 58 135
e 58 137
e 58 147
e 58 151
e 58 157
e 58 161
e 58 179
e 58 185
e 58 200
e 59 63
e 59 66
e 59 67
e 59 80
e 59 90
e 59 97
e 59 111
e 59 116
e 59 124
e 59 125
e 59 131
e 59 137
e 59 144
e 59 145
e 59 179
e 59 181
e 60 76
e 60 81
e 60 84
e 60 97
e 60 103
e 60 137
e 60 144
e 60 152
e 60 155
e 60 158
e 60 172
e 60 178
e 60 189
e 60 194
e 60 197
e 61 65
e 61 97
e 61 121
e 61 123
e 61 149
e 61 166
e 61 185
e 61 190
e 62 64
e 62 66
e 62 67
e 62 68
e 62 72
e 62 80
e 62 82
e 62 84
e 62 85
e 62 88
e 62 103
e 62 108
e 62 109
e 62 115
e 62 126
e 62 128
e 62 135
e 62 136
e 62 138
e 62 150
e 62 156
e 62 167
e 62 182
e 62 194
e 62 197
e 62 198
e 62 199
e 63 69
e 63 75
e 63 85
e 63 86
e 63 89
e 63 104
e 63 110
e 63 124
e 63 130
e 63 151
e 63 164
e 63 175
e 63 195
e 64 67
e 64 70
e 64 74
e 64 78
e 64 84
e 64 87
e 64 109
e 64 114
e 64 120
e 64 129
e 64 134
e 64 136
e 64 142
e 64 168
e 64 177
e 64 191
e 64 200
e 65 72
e 65 85
e 65 94
e 65 98
e 65 105
e 65 138
e 65 146
e 65 149
e 65 162
e 65 164
e 65 170
e 65 193
e 65 200
e 66 80
e 66 85
e 66 86
e 66 91
e 66 93
e 66 100
e 66 128
e 66 140
e 66 148
e 66 160
e 66 162
e 66 166
e 67 72
e 67 80
e 67 97
e 67 100
e 67 114
e 67 117
e 67 118
e 67 126
e 67 129
e 67 137
e 67 144
e 67 151
e 67 170
e 67 174
e 67 184
e 68 74
e 68 83
e 68 85
e 68 95
e 68 102
e 68 105
e 68 112
e 68 117
e 68 144
e 68 149
e 68 155
e 68 165
e 68 170
e 68 176
e 68 195
e 68 197
e 69 72
e 69 85
e 69 96
e 69 102
e 69 103
e 69 107
e 69 108
e 69 125
e 69 126
e 69 128
e 69 130
e 69 137
e 69 145
e 69 165
e 69 180
e 69 190
e 70 76
e 70 85
e 70 90
e 70 96
e 70 101
e 70 103
e 70 119
e 70 121
e 70 122
e 70 135
e 70 148
e 70 151
e 70 188
e 70 195
e 71 84
e 71 92
e 71 108
e 71 119
e 71 127
e 71 132
e 71 158
e 71 166
e 71 168
e 71 181
e 71 189
e 71 192
e 71 193
e 71 200
e 72 82
e 72 89
e 72 96
e 72 100
e 72 104
e 72 107
e 72 116
e 72 122
e 72 125
e 72 136
e 72 145
e 72 151
e 72 167
e 72 168
e 72 172
e 72 179
e 73 74
e 73 76
e 73 77
e 73 86
e 73 90
e 73 105
e 73 112
e 73 120
e 73 123
e 73 136
e 73 137
e 73 144
e 73 154
e 73 171
e 73 173
e 74 85
e 74 87
e 74 92
e 74 98
e 74 104
e 74 109
e 74 112
e 74 120
e 74 139
e 74 144
e 74 145
e 74 159
e 74 164
e 74 187
e 75 81
e 75 89
e 75 95
e 75 108
e 75 111
e 75 115
e 75 124
e 75 125
e 75 129
e 75 135
e 75 145
e 75 146
e 75 151
e 75 175
e 75 180
e 75 185
e 75 187
e 75 193
e 75 198
e 75 199
e 76 95
e 76 107
e 76 110
e 76 114
e 76 128
e 76 139
e 76 141
e 76 144
e 76 147
e 76 152
e 76 158
e 76 161
e 76 165
e 76 166
e 76 180
e 76 197
e 77 83
e 77 90
e 77 93
e 77 94
e 77 101
e 77 103
e 77 105
e 77 113
e 77 122
e 77 123
e 77 127
e 77 134
e 77 151
e 77 171
e 77 181
e 77 196
e 78 95
e 78 103
e 78 106
e 78 114
e 78 125
e 78 126
e 78 132
e 78 152
e 78 159
e 78 170
e 78 174
e 79 80
e 79 92
e 79 116
e 79 128
e 79 130
e 79 147
e 79 159
e 79 161
e 79 171
e 79 177
e 79 179
e 79 185
e 80 100
e 80 112
e 80 119
e 80 124
e 80 125
e 80 127
e 80 129
e 80 130
e 80 135
e 80 145
e 80 149
e 80 153
e 80 156
e 80 173
e 80 178
e 80 184
e 80 200
e 81 96
e 81 99
e 81 101
e 81 139
e 81 144
e 81 160
e 81 172
e 81 177
e 81 178
e 81 179
e 81 188
e 81 192
e 81 196
e 82 89
e 82 96
e 82 99
e 82 104
e 82 107
e 82 108
e 82 112
e 82 116
e 82 126
e 82 136
e 82 145
e 82 155
e 82 161
e 82 165
e 82 181
e 82 184
e 82 185
e 82 198
e 83 89
e 83 105
e 83 109
e 83 112
e 83 122
e 83 129
e 83 136
e 83 140
e 83 144
e 83 157
e 83 165
e 83 186
e 83 192
e 84 100
e 84 104
e 84 125
e 84 130
e 84 138
e 84 145
e 84 148
e 84 174
e 84 176
e 85 102
e 85 103
e 85 117
e 85 123
e 85 132
e 85 137
e 85 149
e 85 159
e 85 164
e 85 181
e 85 185
e 85 194
e 86 90
e 86 100
e 86 107
e 86 154
e 86 175
e 86 192
e 87 88
e 87 97
e 87 98
e 87 104
e 87 110
e 87 118
e 87 126
e 87 132
e 87 169
e 87 196
e 88 101
e 88 104
e 88 110
e 88 127
e 88 155
e 88 160
e 88 162
e 88 166
e 88 171
e 88 179
e 88 181
e 88 185
e 88 186
e 89 95
e 89 105
e 89 110
e 89 151
e 89 157
e 89 166
e 89 179
e 89 192
e 90 100
e 90 130
e 90 138
e 90 155
e 90 158
e 90 182
e 90 191
e 90 200
e 91 96
e 91 105
e 91 138
e 91 139
e 91 153
e 91 158
e 91 163
e 91 167
e 91 177
e 91 181
e 91 182
e 91 191
e 91 193
e 92 100
e 92 120
e 92 129
e 92 131
e 92 138
e 92 173
e 92 174
e 92 177
e 92 184
e 93 96
e 93 100
e 93 117
e 93 122
e 93 123
e 93 124
e 93 142
e 93 151
e 93 158
e 93 162
e 93 163
e 93 173
e 93 185
e 93 187
e 93 196
e 93 199
e 94 96
e 94 106
e 94 124
e 94 130
e 94 131
e 94 143
e 94 146
e 94 150
e 94 161
e 94 173
e 94 180
e 94 196
e 94 200
e 95 106
e 95 110
e 95 112
e 95 124
e 95 128
e 95 137
e 95 151
e 95 195
e 95 199
e 96 103
e 96 117
e 96 125
e 96 148
e 96 150
e 96 155
e 96 157
e 96 162
e 96 163
e 96 174
e 96 187
e 96 191
e 97 101
e 97 102
e 97 112
e 97 180
e 97 189
e 97 194
e 97 200
e 98 116
e 98 131
e 98 146
e 98 156
e 98 166
e 98 169
e 98 182
e 98 184
e 98 185
e 98 192
e 99 102
e 99 105
e 99 118
e 99 121
e 99 130
e 99 132
e 99 151
e 100 104
e 100 122
e 100 126
e 100 132
e 100 135
e 100 139
e 100 149
e 100 152
e 100 157
e 100 172
e 100 178
e 101 105
e 101 113
e 101 114
e 101 118
e 101 122
e 101 138
e 101 149
e 101 155
e 101 157
e 101 160
e 101 179
e 101 181
e 101 191
e 102 118
e 102 136
e 102 140
e 102 142
e 102 160
e 102 198
e 103 109
e 103 112
e 103 114
e 103 115
e 103 118
e 103 131
e 103 141
e 103 150
e 103 155
e 103 165
e 103 166
e 103 167
e 103 173
e 103 175
e 103 181
e 103 186
e 103 188
e 103 195
e 104 126
e 104 132
e 104 136
e 104 140
e 104 143
e 104 153
e 104 163
e 104 167
e 104 169
e 104 175
e 104 181
e 105 126
e 105 130
e 105 131
e 105 139
e 105 148
e 105 155
e 105 156
e 105 161
e 105 164
e 105 180
e 105 183
e 105 187
e 105 188
e 105 189
e 105 195
e 105 199
e 106 110
e 106 126
e 106 128
e 106 132
e 106 141
e 106 149
e 106 154
e 106 156
e 106 163
e 106 167
e 106 186
e 106 189
e 106 190
e 107 109
e 107 117
e 107 118
e 107 133
e 107 145
e 107 155
e 107 156
e 107 163
e 107 165
e 107 174
e 107 192
e 107 198
e 107 200
e 108 135
e 108 139
e 108 140
e 108 145
e 108 157
e 108 164
e 108 165
e 108 177
e 108 195
e 109 122
e 109 127
e 109 130
e 109 153
e 109 159
e 109 170
e 109 171
e 109 175
e 109 185
e 109 197
e 110 112
e 110 113
e 110 115
e 110 120
e 110 125
e 110 130
e 110 132
e 110 141
e 110 148
e 110 160
e 110 170
e 110 183
e 110 190
e 110 192
e 110 197
e 110 198
e 111 113
e 111 115
e 111 118
e 111 121
e 111 137
e 111 142
e 111 143
e 111 146
e 111 155
e 111 200
e 112 115
e 112 118
e 112 126
e 112 141
e 112 144
e 112 148
e 112 153
e 112 154
e 112 155
e 112 160
e 112 170
e 112 173
e 112 184
e 112 185
e 112 188
e 112 195
e 112 196
e 113 116
e 113 128
e 113 142
e 113 144
e 113 156
e 113 175
e 113 178
e 113 190
e 113 195
e 114 120
e 114 124
e 114 127
e 114 129
e 114 134
e 114 136
e 114 159
e 114 165
e 114 175
e 114 182
e 114 183
e 114 190
e 114 194
e 114 198
e 114 199
e 115 118
e 115 122
e 115 127
e 115 133
e 115 153
e 115 160
e 115 174
e 115 184
e 115 190
e 115 194
e 115 197
e 116 123
e 116 150
e 116 158
e 116 165
e 116 170
e 116 173
e 116 177
e 116 178
e 116 183
e 116 191
e 117 124
e 117 134
e 117 140
e 117 153
e 117 169
e 117 175
e 117 176
e 117 190
e 117 198
e 117 200
e 118 127
e 118 131
e 118 139
e 118 141
e 118 143
e 118 158
e 118 162
e 118 170
e 118 174
e 118 178
e 118 183
e 118 186
e 119 124
e 119 134
e 119 150
e 119 151
e 119 152
e 119 174
e 119 183
e 120 145
e 120 170
e 120 181
e 120 185
e 120 193
e 121 127
e 121 136
e 121 137
e 121 139
e 121 161
e 121 168
e 121 170
e 121 173
e 121 191
e 121 193
e 122 157
e 122 159
e 122 161
e 122 163
e 123 135
e 123 136
e 123 140
e 123 141
e 123 142
e 123 149
e 123 151
e 123 157
e 123 162
e 123 165
e 123 177
e 123 179
e 123 186
e 123 188
e 124 126
e 124 132
e 124 133
e 124 139
e 124 162
e 124 179
e 124 183
e 124 184
e 124 187
e 124 197
e 125 131
e 125 142
e 125 164
e 125 168
e 125 171
e 125 190
e 126 127
e 126 137
e 126 138
e 126 144
e 126 160
e 126 175
e 127 137
e 127 143
e 127 156
e 127 173
e 127 176
e 127 181
e 127 183
e 127 193
e 127 195
e 128 129
e 128 144
e 128 145
e 128 159
e 129 138
e 129 148
e 129 179
e 129 183
e 129 189
e 129 191
e 129 192
e 130 137
e 130 141
e 130 142
e 130 143
e 130 144
e 130 163
e 130 185
e 130 187
e 130 200
e 131 143
e 131 162
e 131 166
e 131 171
e 131 177
e 131 186
e 131 188
e 132 179
e 132 189
e 133 150
e 133 153
e 133 164
e 133 169
e 133 171
e 133 175
e 133 176
e 133 181
e 133 186
e 134 164
e 134 185
e 134 191
e 135 149
e 135 152
e 135 160
e 135 188
e 135 192
e 136 166
e 136 182
e 136 187
e 136 197
e 137 142
e 137 145
e 137 147
e 137 149
e 137 151
e 137 166
e 137 169
e 137 175
e 137 186
e 138 147
e 138 151
e 138 153
e 138 164
e 138 165
e 138 167
e 138 186
e 138 187
e 138 191
e 138 192
e 140 142
e 140 143
e 140 165
e 140 169
e 140 181
e 140 186
e 140 194
e 141 150
e 141 170
e 141 184
e 141 189
e 141 193
e 141 194
e 141 196
e 142 158
e 142 160
e 142 161
e 142 168
e 142 170
e 142 183
e 142 198
e 143 153
e 143 158
e 143 177
e 143 179
e 143 194
e 144 145
e 144 150
e 144 160
e 144 165
e 144 185
e 145 178
e 145 183
e 145 186
e 145 189
e 145 194
e 145 198
e 146 182
e 146 196
e 147 148
e 147 150
e 147 155
e 147 161
e 147 164
e 147 176
e 147 190
e 148 178
e 148 185
e 148 196
e 149 154
e 149 159
e 149 173
e 150 169
e 150 171
e 150 180
e 150 184
e 150 192
e 151 165
e 151 181
e 152 155
e 152 162
e 152 171
e 152 174
e 152 180
e 152 182
e 152 185
e 153 155
e 153 158
e 153 160
e 153 161
e 153 184
e 153 187
e 154 157
e 154 172
e 154 174
e 155 174
e 155 191
e 155 193
e 156 159
e 156 165
e 156 166
e 156 179
e 156 180
e 156 187
e 156 191
e 156 198
e 157 159
e 157 162
e 157 164
e 157 174
e 157 188
e 158 159
e 158 194
e 159 166
e 159 174
e 159 177
e 159 191
e 159 192
e 159 195
e 159 199
e 160 162
e 160 171
e 160 175
e 160 188
e 160 199
e 161 172
e 161 176
e 161 181
e 161 182
e 161 184
e 161 187
e 161 196
e 162 164
e 162 182
e 162 190
e 162 193
e 162 198
e 163 186
e 163 187
e 163 190
e 163 194
e 164 167
e 164 169
e 164 187
e 164 188
e 164 197
e 164 198
e 165 167
e 165 168
e 165 174
e 165 182
e 165 196
e 166 168
e 166 190
e 166 192
e 167 171
e 167 175
e 168 172
e 168 186
e 169 178
e 169 183
e 169 199
e 170 178
e 170 200
e 171 179
e 171 186
e 171 187
e 171 188
e 171 190
e 171 192
e 171 196
e 172 177
e 172 184
e 172 185
e 172 199
e 173 175
e 173 193
e 173 199
e 174 177
e 174 178
e 174 189
e 174 195
e 174 196
e 175 176
e 175 192
e 175 193
e 175 197
e 176 177
e 176 181
e 176 187
e 176 190
e 176 193
e 176 194
e 176 195
e 177 183
e 178 184
e 178 194
e 179 196
e 181 185
e 181 189
e 181 190
e 182 183
e 182 189
e 182 190
e 182 197
e 182 198
e 182 199
e 183 197
e 184 196
e 185 191
e 185 193
e 186 195
e 186 200
e 187 191
e 187 192
e 188 195
e 189 193
e 189 195
e 190 191
e 191 192
e 191 198
e 192 197
e 194 197
e 194 200
e 195 196
e 195 200
